NAME: krajska_mesta
TYPE: TSP
DIMENSION: 12
EDGE_WEIGHT_TYPE: GEO
COMMENT: MODERN_GPS_DIPLOMA
NODE_COORD_SECTION
 1 50.073377 14.408962
 2 50.665231 14.038511
 3 50.764913 15.060368
 4 50.209132 15.815816
 5 50.036229 15.768226
 6 48.980424 14.478424
 7 50.235360 12.861192
 8 49.731234 13.384608
 9 49.188484 16.610588
 10 49.595565 17.228331
 11 49.831965 18.160973
 12 49.404438 15.581755
EOF